n = 32;
m = 10;

G = 
[[0.   0.54 0.   0.99 0.   0.59 0.38 0.   0.62 0.54 0.87 0.43 0.4  0.8  0.65 0.08 0.   0.14 0.48 0.2  0.05 0.58 0.43 0.   0.   0.16 0.   0.94 0.78 0.09 0.   0.27]
 [0.54 0.   0.6  0.   0.8  0.   0.34 0.38 0.08 0.57 0.   0.76 0.68 0.32 0.   0.   0.2  0.   0.   0.   0.14 0.   0.44 0.   0.82 0.   0.   0.   0.   0.42 0.   0.79]
 [0.   0.6  0.   0.11 0.77 0.54 0.17 0.52 0.   0.16 0.27 0.89 0.46 0.46 0.97 0.51 0.   0.   0.45 0.18 0.29 0.55 0.05 0.   0.   0.97 0.   0.   0.87 0.51 0.54 0.15]
 [0.99 0.   0.11 0.   0.53 0.   0.01 0.   0.19 0.44 0.85 0.35 0.   0.89 0.   0.78 0.7  0.   0.42 0.19 0.96 0.65 0.   0.17 0.98 0.   0.74 0.04 0.   0.54 0.39 0.  ]
 [0.   0.8  0.77 0.53 0.   0.26 0.   0.   0.26 0.   0.   0.72 0.   0.26 0.   0.   0.   0.   0.11 0.02 0.48 0.67 0.   0.82 0.   0.   0.12 0.18 0.   0.   0.   0.07]
 [0.59 0.   0.54 0.   0.26 0.   0.   0.   0.49 0.72 0.96 0.98 0.   0.92 0.42 0.33 0.55 0.69 0.   0.34 0.   0.   0.   0.38 0.   0.76 0.   0.   0.   0.   0.66 0.26]
 [0.38 0.34 0.17 0.01 0.   0.   0.   0.56 0.92 0.   0.41 0.   0.   0.29 0.62 0.   0.48 0.   0.66 0.07 0.28 0.   0.   0.41 0.12 0.21 0.44 0.38 0.37 0.43 0.43 0.83]
 [0.   0.38 0.52 0.   0.   0.   0.56 0.   0.64 0.   0.   0.   0.42 0.87 0.24 0.17 0.   0.65 0.21 0.63 0.16 0.   0.27 0.15 0.72 0.   1.   0.15 0.2  0.82 0.01 0.25]
 [0.62 0.08 0.   0.19 0.26 0.49 0.92 0.64 0.   0.73 0.   0.   0.58 0.06 0.92 0.59 0.33 0.   0.97 0.55 0.79 0.   0.   0.   0.77 0.   0.35 0.   0.   0.   0.   0.  ]
 [0.54 0.57 0.16 0.44 0.   0.72 0.   0.   0.73 0.   0.82 0.61 0.   0.   0.98 0.   0.   0.   0.53 0.87 0.34 0.6  0.2  0.36 0.93 0.65 0.81 0.   0.   0.   0.   0.42]
 [0.87 0.   0.27 0.85 0.   0.96 0.41 0.   0.   0.82 0.   0.92 0.29 0.58 0.53 0.46 0.   0.   0.   0.   0.   0.81 0.   0.43 0.   0.71 0.51 0.   0.   0.34 0.   0.  ]
 [0.43 0.76 0.89 0.35 0.72 0.98 0.   0.   0.   0.61 0.92 0.   0.   0.   0.7  0.59 0.03 0.99 0.86 0.   0.16 0.   0.79 0.   0.25 0.36 0.53 0.3  0.   0.   0.   0.  ]
 [0.4  0.68 0.46 0.   0.   0.   0.   0.42 0.58 0.   0.29 0.   0.   0.   0.58 0.27 0.68 0.   0.   0.   0.43 0.   0.   0.   0.   0.07 0.3  0.43 0.07 0.07 0.   0.02]
 [0.8  0.32 0.46 0.89 0.26 0.92 0.29 0.87 0.06 0.   0.58 0.   0.   0.   0.   0.79 0.71 0.   0.02 0.09 0.6  0.85 0.   0.12 0.18 0.4  0.   0.   0.   0.8  0.   0.92]
 [0.65 0.   0.97 0.   0.   0.42 0.62 0.24 0.92 0.98 0.53 0.7  0.58 0.   0.   0.99 0.22 0.65 0.   0.95 0.64 0.   0.97 0.   0.56 0.07 0.   0.37 0.15 0.15 0.93 0.  ]
 [0.08 0.   0.51 0.78 0.   0.33 0.   0.17 0.59 0.   0.46 0.59 0.27 0.79 0.99 0.   0.   0.   0.   0.17 0.   0.   0.   0.   0.   0.99 0.   0.   0.   0.   0.9  0.61]
 [0.   0.2  0.   0.7  0.   0.55 0.48 0.   0.33 0.   0.   0.03 0.68 0.71 0.22 0.   0.   0.65 0.06 0.45 0.42 0.   0.37 0.61 0.13 0.68 0.   0.23 0.   0.42 0.94 0.  ]
 [0.14 0.   0.   0.   0.   0.69 0.   0.65 0.   0.   0.   0.99 0.   0.   0.65 0.   0.65 0.   0.   0.   0.   0.   0.47 0.   0.21 0.25 0.93 0.   0.55 0.87 0.82 0.  ]
 [0.48 0.   0.45 0.42 0.11 0.   0.66 0.21 0.97 0.53 0.   0.86 0.   0.02 0.   0.   0.06 0.   0.   0.68 0.04 0.   0.44 0.84 0.   0.82 0.87 0.81 0.14 0.   0.   0.33]
 [0.2  0.   0.18 0.19 0.02 0.34 0.07 0.63 0.55 0.87 0.   0.   0.   0.09 0.95 0.17 0.45 0.   0.68 0.   0.45 0.   0.23 0.68 0.81 0.92 0.   0.   0.   0.15 0.   0.65]
 [0.05 0.14 0.29 0.96 0.48 0.   0.28 0.16 0.79 0.34 0.   0.16 0.43 0.6  0.64 0.   0.42 0.   0.04 0.45 0.   0.53 0.   0.   0.23 0.   0.   0.85 0.99 0.45 0.91 0.21]
 [0.58 0.   0.55 0.65 0.67 0.   0.   0.   0.   0.6  0.81 0.   0.   0.85 0.   0.   0.   0.   0.   0.   0.53 0.   0.   0.89 0.9  0.41 0.   0.   0.   0.   0.85 0.23]
 [0.43 0.44 0.05 0.   0.   0.   0.   0.27 0.   0.2  0.   0.79 0.   0.   0.97 0.   0.37 0.47 0.44 0.23 0.   0.   0.   0.26 0.94 0.16 0.19 0.54 0.   0.   0.45 0.  ]
 [0.   0.   0.   0.17 0.82 0.38 0.41 0.15 0.   0.36 0.43 0.   0.   0.12 0.   0.   0.61 0.   0.84 0.68 0.   0.89 0.26 0.   0.   0.   0.41 0.96 0.02 0.93 0.67 0.27]
 [0.   0.82 0.   0.98 0.   0.   0.12 0.72 0.77 0.93 0.   0.25 0.   0.18 0.56 0.   0.13 0.21 0.   0.81 0.23 0.9  0.94 0.   0.   0.   0.   0.87 0.89 0.   0.32 0.  ]
 [0.16 0.   0.97 0.   0.   0.76 0.21 0.   0.   0.65 0.71 0.36 0.07 0.4  0.07 0.99 0.68 0.25 0.82 0.92 0.   0.41 0.16 0.   0.   0.   0.57 0.73 0.   0.   0.   0.67]
 [0.   0.   0.   0.74 0.12 0.   0.44 1.   0.35 0.81 0.51 0.53 0.3  0.   0.   0.   0.   0.93 0.87 0.   0.   0.   0.19 0.41 0.   0.57 0.   0.89 0.62 0.11 0.   0.27]
 [0.94 0.   0.   0.04 0.18 0.   0.38 0.15 0.   0.   0.   0.3  0.43 0.   0.37 0.   0.23 0.   0.81 0.   0.85 0.   0.54 0.96 0.87 0.73 0.89 0.   0.36 0.   0.65 0.15]
 [0.78 0.   0.87 0.   0.   0.   0.37 0.2  0.   0.   0.   0.   0.07 0.   0.15 0.   0.   0.55 0.14 0.   0.99 0.   0.   0.02 0.89 0.   0.62 0.36 0.   0.63 0.87 0.  ]
 [0.09 0.42 0.51 0.54 0.   0.   0.43 0.82 0.   0.   0.34 0.   0.07 0.8  0.15 0.   0.42 0.87 0.   0.15 0.45 0.   0.   0.93 0.   0.   0.11 0.   0.63 0.   0.   0.  ]
 [0.   0.   0.54 0.39 0.   0.66 0.43 0.01 0.   0.   0.   0.   0.   0.   0.93 0.9  0.94 0.82 0.   0.   0.91 0.85 0.45 0.67 0.32 0.   0.   0.65 0.87 0.   0.   0.83]
 [0.27 0.79 0.15 0.   0.07 0.26 0.83 0.25 0.   0.42 0.   0.   0.02 0.92 0.   0.61 0.   0.   0.33 0.65 0.21 0.23 0.   0.27 0.   0.67 0.27 0.15 0.   0.   0.83 0.  ]];

H = 
[[0.   0.   0.65 0.03 0.75 0.95 0.   0.   0.64 0.3 ]
 [0.   0.   0.   0.25 0.   0.66 0.13 0.03 0.3  0.16]
 [0.65 0.   0.   0.66 0.54 0.94 0.   0.75 0.   0.  ]
 [0.03 0.25 0.66 0.   0.15 0.   0.08 0.02 0.   0.  ]
 [0.75 0.   0.54 0.15 0.   0.76 0.53 0.   0.   0.  ]
 [0.95 0.66 0.94 0.   0.76 0.   0.96 0.03 0.   0.  ]
 [0.   0.13 0.   0.08 0.53 0.96 0.   0.4  0.   0.74]
 [0.   0.03 0.75 0.02 0.   0.03 0.4  0.   0.23 0.  ]
 [0.64 0.3  0.   0.   0.   0.   0.   0.23 0.   0.42]
 [0.3  0.16 0.   0.   0.   0.   0.74 0.   0.42 0.  ]];
